
******************************************************************************
This program contains Ipopt, a library for large-scale nonlinear optimization.
 Ipopt is released as open source code under the Eclipse Public License (EPL).
         For more information visit http://projects.coin-or.org/Ipopt
******************************************************************************

This is Ipopt version 3.12.6, running with linear solver ma57.

Number of nonzeros in equality constraint Jacobian...:        0
Number of nonzeros in inequality constraint Jacobian.:    45000
Number of nonzeros in Lagrangian Hessian.............:     5000

Total number of variables............................:     5000
                     variables with only lower bounds:        0
                variables with lower and upper bounds:     5000
                     variables with only upper bounds:        0
Total number of equality constraints.................:        0
Total number of inequality constraints...............:     5000
        inequality constraints with only lower bounds:        0
   inequality constraints with lower and upper bounds:        0
        inequality constraints with only upper bounds:     5000

iter    objective    inf_pr   inf_du lg(mu)  ||d||  lg(rg) alpha_du alpha_pr  ls
   0  1.3748500e+04 0.00e+00 2.83e+00  -1.0 0.00e+00    -  0.00e+00 0.00e+00   0
   1  1.3682453e+04 0.00e+00 2.01e+00  -1.0 2.01e-02   2.0 1.00e+00 1.00e+00f  1
   2  1.3470184e+04 0.00e+00 2.12e+00  -1.0 6.35e-02   1.5 1.00e+00 1.00e+00f  1
   3  1.2730011e+04 0.00e+00 2.33e+00  -1.0 2.21e-01   1.0 1.00e+00 1.00e+00f  1
   4  1.2270927e+04 0.00e+00 1.85e+00  -1.0 9.87e-02   1.5 1.00e+00 1.00e+00f  1
   5  1.2092265e+04 0.00e+00 2.79e+00  -1.0 4.93e-02   1.9 1.00e+00 1.00e+00f  1
   6  1.1693178e+04 0.00e+00 2.40e+00  -1.0 8.25e-02   1.4 1.00e+00 1.00e+00f  1
   7  1.1505985e+04 0.00e+00 2.14e+00  -1.0 4.19e-02   1.8 1.00e+00 1.00e+00f  1
   8  1.1065553e+04 0.00e+00 2.60e+00  -1.0 9.21e-02   1.4 1.00e+00 1.00e+00f  1
   9  1.0934136e+04 0.00e+00 3.94e+00  -1.0 6.32e-02   1.8 1.00e+00 1.00e+00f  1
iter    objective    inf_pr   inf_du lg(mu)  ||d||  lg(rg) alpha_du alpha_pr  ls
  10  1.0712037e+04 0.00e+00 1.47e+00  -1.0 8.70e-02   1.3 1.00e+00 1.00e+00f  1
  11  9.8866527e+03 0.00e+00 1.32e+00  -1.0 3.85e-01    -  1.00e+00 1.00e+00f  1
  12  8.3779084e+03 4.09e-01 9.82e-01  -1.0 2.26e+00    -  1.00e+00 1.00e+00F  1
  13  8.7526055e+03 0.00e+00 8.30e-01  -1.0 2.29e+00    -  1.00e+00 1.00e+00f  1
  14  8.8289873e+03 0.00e+00 1.31e-02  -1.0 7.74e-01    -  1.00e+00 1.00e+00h  1
  15  8.4278819e+03 2.89e-02 9.19e-02  -2.5 1.77e+00    -  9.53e-01 1.00e+00f  1
  16  8.3670990e+03 2.19e-01 2.79e-02  -2.5 1.78e+00    -  1.00e+00 8.57e-01f  1
  17  8.3731159e+03 0.00e+00 2.08e-02  -2.5 2.80e-01    -  1.00e+00 1.00e+00h  1
  18  8.3631301e+03 4.00e-03 5.39e-03  -3.8 2.43e-01    -  1.00e+00 8.81e-01f  1
  19  8.3620265e+03 1.41e-03 4.03e-04  -3.8 7.92e-02    -  1.00e+00 9.90e-01h  1
iter    objective    inf_pr   inf_du lg(mu)  ||d||  lg(rg) alpha_du alpha_pr  ls
  20  8.3620337e+03 0.00e+00 5.24e-05  -3.8 2.45e-02    -  1.00e+00 1.00e+00h  1
  21  8.3615399e+03 3.80e-05 6.03e-04  -5.7 2.82e-02    -  9.93e-01 8.19e-01f  1
  22  8.3614561e+03 1.56e-05 1.17e-03  -5.7 1.73e-02    -  1.00e+00 7.71e-01h  1
  23  8.3614326e+03 2.90e-05 2.01e-04  -5.7 1.04e-02    -  1.00e+00 9.60e-01h  1
  24  8.3614317e+03 0.00e+00 2.48e-06  -5.7 4.03e-03    -  1.00e+00 1.00e+00h  1
  25  8.3614256e+03 2.18e-06 1.80e-04  -8.6 3.35e-03    -  8.83e-01 8.26e-01h  1
  26  8.3614247e+03 3.79e-06 1.24e-03  -8.6 3.39e-03    -  9.70e-01 7.48e-01h  1
  27  8.3614244e+03 2.77e-06 9.47e-04  -8.6 2.19e-03    -  9.70e-01 8.27e-01h  1
  28  8.3614243e+03 9.57e-07 1.91e-04  -8.6 1.25e-03    -  1.00e+00 9.68e-01f  1
  29  8.3614243e+03 5.62e-08 2.08e-08  -8.6 4.11e-04    -  1.00e+00 1.00e+00f  1
iter    objective    inf_pr   inf_du lg(mu)  ||d||  lg(rg) alpha_du alpha_pr  ls
  30  8.3614243e+03 0.00e+00 1.39e-09  -8.6 9.86e-05    -  1.00e+00 1.00e+00h  1

Number of Iterations....: 30

                                   (scaled)                 (unscaled)
Objective...............:   8.3614243431329487e+03    8.3614243431329487e+03
Dual infeasibility......:   1.3939058768482575e-09    1.3939058768482575e-09
Constraint violation....:   0.0000000000000000e+00    0.0000000000000000e+00
Complementarity.........:   3.1244532348287020e-09    3.1244532348287020e-09
Overall NLP error.......:   3.1244532348287020e-09    3.1244532348287020e-09


Number of objective function evaluations             = 32
Number of objective gradient evaluations             = 31
Number of equality constraint evaluations            = 0
Number of inequality constraint evaluations          = 33
Number of equality constraint Jacobian evaluations   = 0
Number of inequality constraint Jacobian evaluations = 31
Number of Lagrangian Hessian evaluations             = 30
Total CPU secs in IPOPT (w/o function evaluations)   =      0.443
Total CPU secs in NLP function evaluations           =      0.133

EXIT: Optimal Solution Found.
Note: The following floating-point exceptions are signalling: IEEE_UNDERFLOW_FLAG IEEE_DENORMAL

************************ CUTEst statistics ************************


 Package used            :  IPOPT
 Problem                 :  SVANBERG  
 # variables             =            5000
 # constraints           =            5000
 # objective functions   =        0.6400000E+02
 # objective gradients   =        0.3200000E+02
 # objective Hessians    =        0.3100000E+02
 # Hessian-vector prdct  =        0.0000000E+00
 # constraints functions =        0.6600000E+02
 # constraints gradients =        0.3300000E+02
 # constraints Hessians  =        0.3100000E+02
 Exit code               =               0
 Final f                 =   0.8361424E+04
 Set up time             =            0.19 seconds
 Solve time              =            0.67 seconds


******************************************************************

System Time =       0.5690000057 s.
